(set-option :produce-models true); benchmark generated from python API
(set-info :status unknown)
(declare-fun l_1_0_5 () Real)
(declare-fun l_1_0_34 () Real)
(declare-fun l_1_0_33 () Real)
(declare-fun l_1_0_29 () Real)
(declare-fun l_1_0_19 () Real)
(declare-fun l_1_0_17 () Real)
(declare-fun l_1_0_15 () Real)
(declare-fun l_1_0_14 () Real)
(declare-fun _a_0_ () Real)
(declare-fun l_1_0_4 () Real)
(declare-fun l_1_0_32 () Real)
(declare-fun l_1_0_18 () Real)
(declare-fun l_1_0_13 () Real)
(declare-fun _a_1_ () Real)
(declare-fun l_1_0_37 () Real)
(declare-fun l_1_0_35 () Real)
(declare-fun l_1_0_36 () Real)
(declare-fun l_1_0_31 () Real)
(declare-fun l_1_0_3 () Real)
(declare-fun l_1_0_26 () Real)
(declare-fun l_1_0_24 () Real)
(declare-fun l_1_0_23 () Real)
(declare-fun l_1_0_20 () Real)
(declare-fun l_1_0_10 () Real)
(declare-fun l_1_0_1 () Real)
(declare-fun _a_2_ () Real)
(declare-fun l_1_0_9 () Real)
(declare-fun l_1_0_30 () Real)
(declare-fun l_1_0_28 () Real)
(declare-fun l_1_0_27 () Real)
(declare-fun l_1_0_25 () Real)
(declare-fun l_1_0_21 () Real)
(declare-fun _a_3_ () Real)
(declare-fun l_1_0_6 () Real)
(declare-fun l_1_0_22 () Real)
(declare-fun l_1_0_16 () Real)
(declare-fun l_1_0_11 () Real)
(declare-fun _a_4_ () Real)
(declare-fun l_1_0_8 () Real)
(declare-fun l_1_0_7 () Real)
(declare-fun l_1_0_38 () Real)
(declare-fun l_1_0_2 () Real)
(declare-fun l_1_0_12 () Real)
(declare-fun _a_5_ () Real)
(declare-fun l_1_1_7 () Real)
(declare-fun l_1_1_33 () Real)
(declare-fun l_1_1_32 () Real)
(declare-fun l_1_1_23 () Real)
(declare-fun l_1_1_18 () Real)
(declare-fun l_1_1_16 () Real)
(declare-fun l_1_1_15 () Real)
(declare-fun l_1_1_14 () Real)
(declare-fun l_1_1_11 () Real)
(declare-fun l_1_1_10 () Real)
(declare-fun l_1_1_28 () Real)
(declare-fun l_1_1_24 () Real)
(declare-fun l_1_1_20 () Real)
(declare-fun l_1_1_19 () Real)
(declare-fun l_1_1_1 () Real)
(declare-fun l_1_1_4 () Real)
(declare-fun l_1_1_38 () Real)
(declare-fun l_1_1_37 () Real)
(declare-fun l_1_1_36 () Real)
(declare-fun l_1_1_3 () Real)
(declare-fun l_1_1_29 () Real)
(declare-fun l_1_1_26 () Real)
(declare-fun l_1_1_25 () Real)
(declare-fun l_1_1_21 () Real)
(declare-fun l_1_1_13 () Real)
(declare-fun l_1_1_12 () Real)
(declare-fun l_1_1_8 () Real)
(declare-fun l_1_1_6 () Real)
(declare-fun l_1_1_5 () Real)
(declare-fun l_1_1_34 () Real)
(declare-fun l_1_1_31 () Real)
(declare-fun l_1_1_17 () Real)
(declare-fun l_1_1_9 () Real)
(declare-fun l_1_1_2 () Real)
(declare-fun l_1_1_35 () Real)
(declare-fun l_1_1_30 () Real)
(declare-fun l_1_1_22 () Real)
(declare-fun l_1_1_27 () Real)
(declare-fun l_1_2_8 () Real)
(declare-fun l_1_2_7 () Real)
(declare-fun l_1_2_6 () Real)
(declare-fun l_1_2_45 () Real)
(declare-fun l_1_2_44 () Real)
(declare-fun l_1_2_4 () Real)
(declare-fun l_1_2_39 () Real)
(declare-fun l_1_2_34 () Real)
(declare-fun l_1_2_32 () Real)
(declare-fun l_1_2_27 () Real)
(declare-fun l_1_2_26 () Real)
(declare-fun l_1_2_25 () Real)
(declare-fun l_1_2_22 () Real)
(declare-fun l_1_2_2 () Real)
(declare-fun l_1_2_11 () Real)
(declare-fun l_1_2_1 () Real)
(declare-fun l_1_2_9 () Real)
(declare-fun l_1_2_43 () Real)
(declare-fun l_1_2_3 () Real)
(declare-fun l_1_2_28 () Real)
(declare-fun l_1_2_18 () Real)
(declare-fun l_1_2_15 () Real)
(declare-fun l_1_2_10 () Real)
(declare-fun l_1_2_46 () Real)
(declare-fun l_1_2_42 () Real)
(declare-fun l_1_2_38 () Real)
(declare-fun l_1_2_37 () Real)
(declare-fun l_1_2_29 () Real)
(declare-fun l_1_2_21 () Real)
(declare-fun l_1_2_17 () Real)
(declare-fun l_1_2_14 () Real)
(declare-fun l_1_2_36 () Real)
(declare-fun l_1_2_33 () Real)
(declare-fun l_1_2_50 () Real)
(declare-fun l_1_2_49 () Real)
(declare-fun l_1_2_48 () Real)
(declare-fun l_1_2_41 () Real)
(declare-fun l_1_2_40 () Real)
(declare-fun l_1_2_35 () Real)
(declare-fun l_1_2_30 () Real)
(declare-fun l_1_2_24 () Real)
(declare-fun l_1_2_23 () Real)
(declare-fun l_1_2_20 () Real)
(declare-fun l_1_2_19 () Real)
(declare-fun l_1_2_13 () Real)
(declare-fun l_1_2_12 () Real)
(declare-fun l_1_2_47 () Real)
(declare-fun l_1_2_31 () Real)
(declare-fun l_1_2_5 () Real)
(declare-fun l_1_2_16 () Real)
(declare-fun l_1_3_34 () Real)
(declare-fun l_1_3_33 () Real)
(declare-fun l_1_3_27 () Real)
(declare-fun l_1_3_26 () Real)
(declare-fun l_1_3_25 () Real)
(declare-fun l_1_3_21 () Real)
(declare-fun l_1_3_16 () Real)
(declare-fun l_1_3_4 () Real)
(declare-fun l_1_3_20 () Real)
(declare-fun l_1_3_3 () Real)
(declare-fun l_1_3_14 () Real)
(declare-fun l_1_3_13 () Real)
(declare-fun l_1_3_12 () Real)
(declare-fun l_1_3_11 () Real)
(declare-fun l_1_3_5 () Real)
(declare-fun l_1_3_9 () Real)
(declare-fun l_1_3_36 () Real)
(declare-fun l_1_3_29 () Real)
(declare-fun l_1_3_28 () Real)
(declare-fun l_1_3_23 () Real)
(declare-fun l_1_3_2 () Real)
(declare-fun l_1_3_19 () Real)
(declare-fun l_1_3_18 () Real)
(declare-fun l_1_3_15 () Real)
(declare-fun l_1_3_10 () Real)
(declare-fun l_1_3_7 () Real)
(declare-fun l_1_3_24 () Real)
(declare-fun l_1_3_8 () Real)
(declare-fun l_1_3_32 () Real)
(declare-fun l_1_3_17 () Real)
(declare-fun l_1_3_1 () Real)
(declare-fun l_1_3_6 () Real)
(declare-fun l_1_3_37 () Real)
(declare-fun l_1_3_35 () Real)
(declare-fun l_1_3_30 () Real)
(declare-fun l_1_3_38 () Real)
(declare-fun l_1_3_22 () Real)
(declare-fun l_1_3_31 () Real)
(assert
 (let ((?x131 (+ (- (+ (- (- _a_0_ l_1_0_14) l_1_0_15) l_1_0_17) l_1_0_19) l_1_0_29)))
 (= (+ (- ?x131 (* (* 2.0 l_1_0_33) l_1_0_34)) l_1_0_5) 0.0)))
(assert
 (let ((?x2490 (* l_1_0_33 l_1_0_33)))
 (let ((?x2960 (- (- (- (- (- _a_1_ l_1_0_13) l_1_0_18) l_1_0_32) ?x2490) l_1_0_4)))
 (= ?x2960 0.0))))
(assert
 (let ((?x2696 (+ (- (+ (+ (- _a_2_ l_1_0_1) l_1_0_10) l_1_0_20) l_1_0_23) l_1_0_24)))
 (let ((?x2918 (- (+ (- (- ?x2696 l_1_0_26) l_1_0_3) l_1_0_31) (* (* 2.0 l_1_0_34) l_1_0_36))))
 (= (- ?x2918 (* (* 2.0 l_1_0_35) l_1_0_37)) 0.0))))
(assert
 (let ((?x129 (- (+ (+ (- (- _a_3_ l_1_0_21) l_1_0_25) l_1_0_27) l_1_0_28) l_1_0_30)))
 (= (+ (- ?x129 (* (* 2.0 l_1_0_33) l_1_0_36)) l_1_0_9) 0.0)))
(assert
 (let ((?x114 (* l_1_0_35 l_1_0_35)))
 (let ((?x2690 (* l_1_0_34 l_1_0_34)))
 (let ((?x2691 (- (- (- (+ (- _a_4_ l_1_0_11) l_1_0_16) l_1_0_22) ?x2690) ?x114)))
 (= (+ ?x2691 l_1_0_6) 0.0)))))
(assert
 (let ((?x2714 (* l_1_0_38 l_1_0_38)))
 (let ((?x2712 (* l_1_0_37 l_1_0_37)))
 (let ((?x2713 (- (- (+ (+ _a_5_ l_1_0_12) l_1_0_2) (* l_1_0_36 l_1_0_36)) ?x2712)))
 (= (- (- (- ?x2713 ?x2714) l_1_0_7) l_1_0_8) 0.0)))))
(assert
 (>= l_1_0_1 0.0))
(assert
 (>= l_1_0_2 0.0))
(assert
 (>= l_1_0_3 0.0))
(assert
 (>= l_1_0_4 0.0))
(assert
 (>= l_1_0_5 0.0))
(assert
 (>= l_1_0_6 0.0))
(assert
 (>= l_1_0_7 0.0))
(assert
 (>= l_1_0_8 0.0))
(assert
 (>= l_1_0_9 0.0))
(assert
 (>= l_1_0_10 0.0))
(assert
 (>= l_1_0_11 0.0))
(assert
 (>= l_1_0_12 0.0))
(assert
 (>= l_1_0_13 0.0))
(assert
 (>= l_1_0_14 0.0))
(assert
 (>= l_1_0_15 0.0))
(assert
 (>= l_1_0_16 0.0))
(assert
 (>= l_1_0_17 0.0))
(assert
 (>= l_1_0_18 0.0))
(assert
 (>= l_1_0_19 0.0))
(assert
 (>= l_1_0_20 0.0))
(assert
 (>= l_1_0_21 0.0))
(assert
 (>= l_1_0_22 0.0))
(assert
 (>= l_1_0_23 0.0))
(assert
 (>= l_1_0_24 0.0))
(assert
 (>= l_1_0_25 0.0))
(assert
 (>= l_1_0_26 0.0))
(assert
 (>= l_1_0_27 0.0))
(assert
 (>= l_1_0_28 0.0))
(assert
 (>= l_1_0_29 0.0))
(assert
 (>= l_1_0_30 0.0))
(assert
 (>= l_1_0_31 0.0))
(assert
 (>= l_1_0_32 0.0))
(assert
 (>= l_1_0_33 0.0))
(assert
 (>= l_1_0_35 0.0))
(assert
 (>= l_1_0_38 0.0))
(assert
 (let ((?x2405 (* l_1_1_33 l_1_1_33)))
 (let ((?x2259 (* 25.0 l_1_1_23)))
 (let ((?x2296 (* 5.0 l_1_1_18)))
 (let ((?x2193 (* 5.0 l_1_1_14)))
 (let ((?x455 (* 5.0 l_1_1_11)))
 (let ((?x2507 (* _a_1_ l_1_1_24)))
 (let ((?x2505 (* _a_1_ l_1_1_20)))
 (let ((?x2506 (- (+ (* (- _a_1_) l_1_1_1) (* (* 5.0 _a_1_) l_1_1_19)) ?x2505)))
 (let ((?x2400 (+ (- (+ (- ?x2506 ?x2507) (* (* 5.0 _a_1_) l_1_1_28)) l_1_1_10) ?x455)))
 (let ((?x2404 (- (- (+ (- (- (+ ?x2400 ?x2193) l_1_1_15) l_1_1_16) ?x2296) ?x2259) l_1_1_32)))
 (= (- (- ?x2404 ?x2405) (* (* l_1_1_7 _a_1_) _a_1_)) 0.0))))))))))))
(assert
 (let ((?x2197 (* l_1_1_38 l_1_1_38)))
 (let ((?x2195 (* l_1_1_37 l_1_1_37)))
 (let ((?x607 (* l_1_1_36 l_1_1_36)))
 (let ((?x2268 (* 15.0 l_1_1_3)))
 (let ((?x2261 (* 15.0 l_1_1_25)))
 (let ((?x2254 (* 100.0 l_1_1_21)))
 (let ((?x2313 (* _a_5_ l_1_1_24)))
 (let ((?x2318 (- (- (- (* (- _a_5_) l_1_1_1) (* _a_5_ l_1_1_20)) ?x2313) (* l_1_1_12 (- _a_1_ (* 10.0 _a_3_))))))
 (let ((?x2256 (- (- (- ?x2318 l_1_1_13) (* l_1_1_19 (- _a_3_ (* 5.0 _a_5_)))) ?x2254)))
 (let ((?x2265 (- (- (+ (- ?x2256 l_1_1_23) ?x2261) l_1_1_26) (* l_1_1_28 (- _a_3_ (* 5.0 _a_5_))))))
 (let ((?x2146 (- (+ (- ?x2265 (* l_1_1_29 (- _a_1_ (* 10.0 _a_3_)))) ?x2268) ?x607)))
 (let ((?x2205 (- (- (- (- ?x2146 ?x2195) ?x2197) l_1_1_4) (* l_1_1_7 (+ (* (* 2.0 _a_1_) _a_5_) (* _a_3_ _a_3_))))))
 (= (- ?x2205 (/ 5.0 2.0)) 0.0))))))))))))))
(assert
 (let ((?x1813 (* 10.0 l_1_1_4)))
 (let ((?x1807 (* 50.0 l_1_1_3)))
 (let ((?x1802 (* 10.0 l_1_1_26)))
 (let ((?x1800 (* 50.0 l_1_1_25)))
 (let ((?x78 (* 10.0 l_1_1_23)))
 (let ((?x1712 (* 10.0 l_1_1_13)))
 (let ((?x1892 (* _a_3_ l_1_1_24)))
 (let ((?x1890 (* _a_3_ l_1_1_20)))
 (let ((?x1888 (* _a_3_ l_1_1_1)))
 (let ((?x1878 (+ (* (* (* (- 2.0) _a_1_) _a_3_) l_1_1_7) (* (* 10.0 _a_1_) l_1_1_12))))
 (let ((?x1893 (- (- (- (+ ?x1878 (* (* 10.0 _a_1_) l_1_1_29)) ?x1888) ?x1890) ?x1892)))
 (let ((?x1360 (- (- (- (+ (- ?x1893 l_1_1_11) ?x1712) l_1_1_14) l_1_1_18) (* l_1_1_19 (- _a_1_ (* 5.0 _a_3_))))))
 (let ((?x1806 (- (+ (- (+ ?x1360 ?x78) ?x1800) ?x1802) (* l_1_1_28 (- _a_1_ (* 5.0 _a_3_))))))
 (let ((?x1816 (- (+ (- (- ?x1806 ?x1807) (* (* 2.0 l_1_1_33) l_1_1_36)) ?x1813) 4.0)))
 (= ?x1816 0.0))))))))))))))))
(assert
 (let ((?x1439 (* 10.0 l_1_1_8)))
 (let ((?x1515 (* 10.0 l_1_1_6)))
 (let ((?x1513 (* 50.0 l_1_1_5)))
 (let ((?x1507 (* 50.0 l_1_1_31)))
 (let ((?x1505 (* 10.0 l_1_1_17)))
 (let ((?x1498 (* _a_0_ l_1_1_24)))
 (let ((?x1495 (* _a_0_ l_1_1_20)))
 (let ((?x1595 (* _a_0_ l_1_1_1)))
 (let ((?x1494 (+ (- (* (* (* (- 2.0) _a_0_) _a_1_) l_1_1_7) ?x1595) (* (* 5.0 _a_0_) l_1_1_19))))
 (let ((?x1502 (+ (+ (- (- ?x1494 ?x1495) ?x1498) (* (* 5.0 _a_0_) l_1_1_28)) (* (* 10.0 _a_1_) l_1_1_2))))
 (let ((?x1511 (- (- (+ (+ ?x1502 (* (* 10.0 _a_1_) l_1_1_9)) ?x1505) ?x1507) (* (* 2.0 l_1_1_33) l_1_1_34))))
 (= (+ (+ (+ (- ?x1511 ?x1513) ?x1515) ?x1439) 1.0) 0.0)))))))))))))
(assert
 (let ((?x70 (+ (* (* 2.0 _a_0_) _a_3_) (* (* 2.0 _a_1_) _a_2_))))
 (let ((?x1284 (* 10.0 l_1_1_5)))
 (let ((?x1316 (* 10.0 l_1_1_31)))
 (let ((?x1314 (* 100.0 l_1_1_30)))
 (let ((?x1308 (* 100.0 l_1_1_22)))
 (let ((?x1388 (* _a_2_ l_1_1_24)))
 (let ((?x1386 (* _a_2_ l_1_1_20)))
 (let ((?x1384 (* _a_2_ l_1_1_1)))
 (let ((?x1383 (+ (* (* 10.0 _a_0_) l_1_1_12) (* (* 10.0 _a_0_) l_1_1_29))))
 (let ((?x1391 (+ (- (- (- ?x1383 ?x1384) ?x1386) ?x1388) (* (* 10.0 _a_3_) l_1_1_2))))
 (let ((?x1307 (- (+ ?x1391 (* (* 10.0 _a_3_) l_1_1_9)) (* l_1_1_19 (- _a_0_ (* 5.0 _a_2_))))))
 (let ((?x1315 (- (- (- ?x1307 ?x1308) (* l_1_1_28 (- _a_0_ (* 5.0 _a_2_)))) ?x1314)))
 (let ((?x1283 (- (- (+ ?x1315 ?x1316) (* (* 2.0 l_1_1_34) l_1_1_36)) (* (* 2.0 l_1_1_35) l_1_1_37))))
 (= (- (+ ?x1283 ?x1284) (* l_1_1_7 ?x70)) 0.0)))))))))))))))
(assert
 (let ((?x929 (* 5.0 l_1_1_5)))
 (let ((?x925 (* l_1_1_35 l_1_1_35)))
 (let ((?x923 (* l_1_1_34 l_1_1_34)))
 (let ((?x843 (* 5.0 l_1_1_31)))
 (let ((?x1026 (* 100.0 l_1_1_27)))
 (let ((?x1010 (* _a_4_ l_1_1_24)))
 (let ((?x1071 (* _a_4_ l_1_1_20)))
 (let ((?x1072 (- (+ (* (- _a_4_) l_1_1_1) (* (* 5.0 _a_4_) l_1_1_19)) ?x1071)))
 (let ((?x1025 (- (- (+ (- ?x1072 ?x1010) (* (* 5.0 _a_4_) l_1_1_28)) l_1_1_17) (* l_1_1_2 (+ (* (- 10.0) _a_0_) _a_1_)))))
 (let ((?x934 (- (- (+ (- (- (+ (- ?x1025 ?x1026) ?x843) ?x923) ?x925) ?x929) l_1_1_6) (* l_1_1_7 (+ (* _a_0_ _a_0_) (* (* 2.0 _a_1_) _a_4_))))))
 (= (- (- ?x934 l_1_1_8) (* l_1_1_9 (+ (* (- 10.0) _a_0_) _a_1_))) 0.0))))))))))))
(assert
 (let ((?x617 (+ (* (* 2.0 _a_0_) _a_2_) (* (* 2.0 _a_3_) _a_4_))))
 (let ((?x610 (* 10.0 l_1_1_30)))
 (let ((?x608 (* 10.0 l_1_1_22)))
 (let ((?x844 (* _a_4_ l_1_1_28)))
 (let ((?x665 (+ (- (- (* (* 10.0 _a_4_) l_1_1_12) (* _a_4_ l_1_1_19)) ?x844) (* (* 10.0 _a_4_) l_1_1_29))))
 (let ((?x612 (+ (+ (- ?x665 (* l_1_1_2 (+ (* (- 10.0) _a_2_) _a_3_))) ?x608) ?x610)))
 (let ((?x559 (- (- (- (- ?x612 l_1_1_31) l_1_1_5) (* l_1_1_7 ?x617)) (* l_1_1_9 (+ (* (- 10.0) _a_2_) _a_3_)))))
 (= ?x559 0.0)))))))))
(assert
 (let ((?x30 (* 20.0 l_1_1_27)))
 (let ((?x426 (- (* (* (* (- 2.0) _a_0_) _a_4_) l_1_1_7) (* l_1_1_2 (- _a_0_ (* 10.0 _a_4_))))))
 (= (- (+ ?x426 ?x30) (* l_1_1_9 (- _a_0_ (* 10.0 _a_4_)))) 0.0))))
(assert
 (let ((?x314 (+ (* (* 2.0 _a_0_) _a_5_) (* (* 2.0 _a_2_) _a_3_))))
 (let ((?x610 (* 10.0 l_1_1_30)))
 (let ((?x608 (* 10.0 l_1_1_22)))
 (let ((?x369 (+ (- (* (- _a_2_) l_1_1_19) (* _a_2_ l_1_1_28)) (* (* 10.0 _a_5_) l_1_1_2))))
 (let ((?x306 (- (+ ?x369 (* (* 10.0 _a_5_) l_1_1_9)) (* l_1_1_12 (- _a_0_ (* 10.0 _a_2_))))))
 (let ((?x310 (+ (- (+ ?x306 ?x608) (* l_1_1_29 (- _a_0_ (* 10.0 _a_2_)))) ?x610)))
 (= (- ?x310 (* l_1_1_7 ?x314)) 0.0))))))))
(assert
 (let ((?x23 (* _a_2_ l_1_1_9)))
 (let ((?x483 (* _a_2_ l_1_1_2)))
 (= (- (- (* (* (* (- 2.0) _a_2_) _a_4_) l_1_1_7) ?x483) ?x23) 0.0))))
(assert
 (let ((?x174 (- (- (- (* (- _a_4_) l_1_1_2) (* _a_4_ l_1_1_9)) l_1_1_27) (* (* l_1_1_7 _a_4_) _a_4_))))
 (= ?x174 0.0)))
(assert
 (let ((?x324 (* _a_5_ l_1_1_9)))
 (let ((?x322 (* _a_5_ l_1_1_2)))
 (let ((?x205 (- (- (- (* (- _a_4_) l_1_1_12) (* _a_4_ l_1_1_29)) ?x322) ?x324)))
 (let ((?x229 (- (- (- ?x205 l_1_1_22) l_1_1_30) (* l_1_1_7 (+ (* _a_2_ _a_2_) (* (* 2.0 _a_4_) _a_5_))))))
 (= ?x229 0.0))))))
(assert
 (let ((?x670 (* 20.0 l_1_1_21)))
 (let ((?x87 (* _a_5_ l_1_1_28)))
 (let ((?x88 (* _a_5_ l_1_1_19)))
 (let ((?x695 (- (- (- (* (* (* (- 2.0) _a_3_) _a_5_) l_1_1_7) ?x88) ?x87) (* l_1_1_12 (- _a_3_ (* 10.0 _a_5_))))))
 (let ((?x674 (- (- (+ ?x695 ?x670) l_1_1_25) (* l_1_1_29 (- _a_3_ (* 10.0 _a_5_))))))
 (= (- ?x674 l_1_1_3) 0.0)))))))
(assert
 (let ((?x232 (* _a_2_ l_1_1_29)))
 (let ((?x281 (* _a_2_ l_1_1_12)))
 (= (- (- (* (* (* (- 2.0) _a_2_) _a_5_) l_1_1_7) ?x281) ?x232) 0.0))))
(assert
 (let ((?x1872 (- (- (- (* (- _a_5_) l_1_1_12) (* _a_5_ l_1_1_29)) l_1_1_21) (* (* l_1_1_7 _a_5_) _a_5_))))
 (= ?x1872 0.0)))
(assert
 (>= l_1_1_1 0.0))
(assert
 (>= l_1_1_2 0.0))
(assert
 (>= l_1_1_3 0.0))
(assert
 (>= l_1_1_4 0.0))
(assert
 (>= l_1_1_5 0.0))
(assert
 (>= l_1_1_6 0.0))
(assert
 (>= l_1_1_7 0.0))
(assert
 (>= l_1_1_8 0.0))
(assert
 (>= l_1_1_9 0.0))
(assert
 (>= l_1_1_10 0.0))
(assert
 (>= l_1_1_11 0.0))
(assert
 (>= l_1_1_12 0.0))
(assert
 (>= l_1_1_13 0.0))
(assert
 (>= l_1_1_14 0.0))
(assert
 (>= l_1_1_15 0.0))
(assert
 (>= l_1_1_16 0.0))
(assert
 (>= l_1_1_17 0.0))
(assert
 (>= l_1_1_18 0.0))
(assert
 (>= l_1_1_19 0.0))
(assert
 (>= l_1_1_20 0.0))
(assert
 (>= l_1_1_21 0.0))
(assert
 (>= l_1_1_22 0.0))
(assert
 (>= l_1_1_23 0.0))
(assert
 (>= l_1_1_24 0.0))
(assert
 (>= l_1_1_25 0.0))
(assert
 (>= l_1_1_26 0.0))
(assert
 (>= l_1_1_27 0.0))
(assert
 (>= l_1_1_28 0.0))
(assert
 (>= l_1_1_29 0.0))
(assert
 (>= l_1_1_30 0.0))
(assert
 (>= l_1_1_31 0.0))
(assert
 (>= l_1_1_32 0.0))
(assert
 (>= l_1_1_33 0.0))
(assert
 (>= l_1_1_35 0.0))
(assert
 (>= l_1_1_38 0.0))
(assert
 (let ((?x1747 (* 25.0 l_1_2_7)))
 (let ((?x1408 (* l_1_2_45 l_1_2_45)))
 (let ((?x1397 (* 5.0 l_1_2_32)))
 (let ((?x1395 (* 5.0 l_1_2_27)))
 (let ((?x1393 (* 5.0 l_1_2_26)))
 (let ((?x265 (* 5.0 l_1_2_2)))
 (let ((?x2634 (* _a_1_ l_1_2_9)))
 (let ((?x2628 (* _a_1_ l_1_2_43)))
 (let ((?x1210 (* _a_1_ l_1_2_28)))
 (let ((?x1205 (* _a_1_ l_1_2_18)))
 (let ((?x1208 (- (+ (* (- _a_1_) l_1_2_10) (* (* 5.0 _a_1_) l_1_2_15)) ?x1205)))
 (let ((?x2635 (- (- (+ (- ?x1208 ?x1210) (* (* 5.0 _a_1_) l_1_2_3)) ?x2628) ?x2634)))
 (let ((?x904 (- (+ (- (- ?x2635 (* (* l_1_2_1 _a_1_) _a_1_)) l_1_2_11) ?x265) l_1_2_22)))
 (let ((?x1403 (- (- (+ (+ (+ (- ?x904 l_1_2_25) ?x1393) ?x1395) ?x1397) l_1_2_34) l_1_2_39)))
 (let ((?x438 (+ (- (- (- (- (- ?x1403 l_1_2_4) l_1_2_44) ?x1408) l_1_2_6) ?x1747) (* 5.0 l_1_2_8))))
 (= ?x438 0.0)))))))))))))))))
(assert
 (let ((?x2362 (* 10.0 l_1_2_42)))
 (let ((?x2356 (* 50.0 l_1_2_38)))
 (let ((?x1848 (* 50.0 l_1_2_37)))
 (let ((?x1847 (* 10.0 l_1_2_29)))
 (let ((?x1852 (* 10.0 l_1_2_21)))
 (let ((?x1699 (* 10.0 l_1_2_17)))
 (let ((?x1698 (* 10.0 l_1_2_14)))
 (let ((?x1693 (* _a_0_ l_1_2_9)))
 (let ((?x1691 (* _a_0_ l_1_2_43)))
 (let ((?x2737 (* _a_0_ l_1_2_28)))
 (let ((?x2735 (* _a_0_ l_1_2_18)))
 (let ((?x1416 (* _a_0_ l_1_2_10)))
 (let ((?x2734 (+ (- (* (* (* (- 2.0) _a_0_) _a_1_) l_1_2_1) ?x1416) (* (* 5.0 _a_0_) l_1_2_15))))
 (let ((?x1692 (- (+ (- (- ?x2734 ?x2735) ?x2737) (* (* 5.0 _a_0_) l_1_2_3)) ?x1691)))
 (let ((?x1695 (+ (+ (- ?x1692 ?x1693) (* (* 10.0 _a_1_) l_1_2_33)) (* (* 10.0 _a_1_) l_1_2_36))))
 (let ((?x2754 (+ (- (- (+ (+ (+ (+ ?x1695 ?x1698) ?x1699) ?x1852) ?x1847) ?x1848) ?x2356) ?x2362)))
 (= (- (- ?x2754 (* (* 2.0 l_1_2_45) l_1_2_46)) 1.0) 0.0))))))))))))))))))
(assert
 (let ((?x375 (* l_1_2_50 l_1_2_50)))
 (let ((?x385 (* l_1_2_49 l_1_2_49)))
 (let ((?x2364 (* l_1_2_48 l_1_2_48)))
 (let ((?x2360 (* 100.0 l_1_2_35)))
 (let ((?x2350 (* 15.0 l_1_2_30)))
 (let ((?x2323 (* 15.0 l_1_2_24)))
 (let ((?x2171 (* _a_5_ l_1_2_9)))
 (let ((?x2167 (* _a_5_ l_1_2_43)))
 (let ((?x881 (* _a_5_ l_1_2_28)))
 (let ((?x2169 (- (- (- (* (- _a_5_) l_1_2_10) (* _a_5_ l_1_2_18)) ?x881) ?x2167)))
 (let ((?x2185 (- (- ?x2169 ?x2171) (* l_1_2_1 (+ (* (* 2.0 _a_1_) _a_5_) (* _a_3_ _a_3_))))))
 (let ((?x2545 (- (- (- ?x2185 (* l_1_2_12 (- _a_1_ (* 10.0 _a_3_)))) l_1_2_13) (* l_1_2_15 (- _a_3_ (* 5.0 _a_5_))))))
 (let ((?x2345 (- (+ (- (- (- ?x2545 l_1_2_19) l_1_2_20) l_1_2_23) ?x2323) (* l_1_2_3 (- _a_3_ (* 5.0 _a_5_))))))
 (let ((?x2363 (- (- (- (+ ?x2345 ?x2350) ?x2360) l_1_2_40) (* l_1_2_41 (- _a_1_ (* 10.0 _a_3_))))))
 (= (+ (- (- (- (- ?x2363 ?x2364) ?x385) ?x375) l_1_2_7) (/ 7.0 2.0)) 0.0))))))))))))))))
(assert
 (let ((?x2384 (* 10.0 l_1_2_7)))
 (let ((?x592 (* 10.0 l_1_2_40)))
 (let ((?x2671 (* 50.0 l_1_2_30)))
 (let ((?x2665 (* 50.0 l_1_2_24)))
 (let ((?x2374 (* 10.0 l_1_2_23)))
 (let ((?x378 (* 10.0 l_1_2_20)))
 (let ((?x2017 (* 10.0 l_1_2_19)))
 (let ((?x2009 (* 10.0 l_1_2_13)))
 (let ((?x2019 (* _a_3_ l_1_2_9)))
 (let ((?x2008 (* _a_3_ l_1_2_43)))
 (let ((?x1649 (* _a_3_ l_1_2_28)))
 (let ((?x1646 (* _a_3_ l_1_2_18)))
 (let ((?x1645 (* _a_3_ l_1_2_10)))
 (let ((?x1637 (+ (* (* (* (- 2.0) _a_1_) _a_3_) l_1_2_1) (* (* 10.0 _a_1_) l_1_2_12))))
 (let ((?x1650 (- (- (- (+ ?x1637 (* (* 10.0 _a_1_) l_1_2_41)) ?x1645) ?x1646) ?x1649)))
 (let ((?x2016 (- (+ (- (- ?x1650 ?x2008) ?x2019) ?x2009) (* l_1_2_15 (- _a_1_ (* 5.0 _a_3_))))))
 (let ((?x2673 (- (- (+ (+ (- (+ ?x2016 ?x2017) l_1_2_2) ?x378) ?x2374) ?x2665) l_1_2_26)))
 (let ((?x2672 (- (- (- ?x2673 l_1_2_27) (* l_1_2_3 (- _a_1_ (* 5.0 _a_3_)))) ?x2671)))
 (let ((?x2385 (+ (- (+ (- ?x2672 l_1_2_32) ?x592) (* (* 2.0 l_1_2_45) l_1_2_48)) ?x2384)))
 (= (+ (- ?x2385 l_1_2_8) 3.0) 0.0)))))))))))))))))))))
(assert
 (let ((?x2354 (* l_1_2_47 l_1_2_47)))
 (let ((?x688 (* l_1_2_46 l_1_2_46)))
 (let ((?x292 (* 5.0 l_1_2_38)))
 (let ((?x290 (* 5.0 l_1_2_37)))
 (let ((?x414 (* 100.0 l_1_2_31)))
 (let ((?x212 (* _a_4_ l_1_2_9)))
 (let ((?x1972 (* _a_4_ l_1_2_43)))
 (let ((?x1463 (* _a_4_ l_1_2_28)))
 (let ((?x1206 (* _a_4_ l_1_2_18)))
 (let ((?x1464 (- (+ (* (- _a_4_) l_1_2_10) (* (* 5.0 _a_4_) l_1_2_15)) ?x1206)))
 (let ((?x214 (- (- (+ (- ?x1464 ?x1463) (* (* 5.0 _a_4_) l_1_2_3)) ?x1972) ?x212)))
 (let ((?x216 (- ?x214 (* l_1_2_1 (+ (* _a_0_ _a_0_) (* (* 2.0 _a_1_) _a_4_))))))
 (let ((?x412 (- (- (- (- (- ?x216 l_1_2_14) l_1_2_17) l_1_2_21) l_1_2_29) ?x414)))
 (let ((?x288 (- (- ?x412 (* l_1_2_33 (+ (* (- 10.0) _a_0_) _a_1_))) (* l_1_2_36 (+ (* (- 10.0) _a_0_) _a_1_)))))
 (= (- (- (- (+ (+ ?x288 ?x290) ?x292) l_1_2_42) ?x688) ?x2354) 0.0))))))))))))))))
(assert
 (let ((?x1754 (* 10.0 l_1_2_5)))
 (let ((?x2335 (* 10.0 l_1_2_16)))
 (let ((?x617 (+ (* (* 2.0 _a_0_) _a_2_) (* (* 2.0 _a_3_) _a_4_))))
 (let ((?x2759 (* _a_4_ l_1_2_3)))
 (let ((?x1086 (+ (- (- (* (* 10.0 _a_4_) l_1_2_12) (* _a_4_ l_1_2_15)) ?x2759) (* (* 10.0 _a_4_) l_1_2_41))))
 (let ((?x1943 (- (+ (- ?x1086 (* l_1_2_1 ?x617)) ?x2335) (* l_1_2_33 (+ (* (- 10.0) _a_2_) _a_3_)))))
 (let ((?x1753 (- (- (- ?x1943 (* l_1_2_36 (+ (* (- 10.0) _a_2_) _a_3_))) l_1_2_37) l_1_2_38)))
 (= (+ ?x1753 ?x1754) 0.0)))))))))
(assert
 (let ((?x1644 (* 100.0 l_1_2_5)))
 (let ((?x2978 (* 10.0 l_1_2_38)))
 (let ((?x2976 (* 10.0 l_1_2_37)))
 (let ((?x2542 (* 100.0 l_1_2_16)))
 (let ((?x70 (+ (* (* 2.0 _a_0_) _a_3_) (* (* 2.0 _a_1_) _a_2_))))
 (let ((?x783 (* _a_2_ l_1_2_9)))
 (let ((?x787 (* _a_2_ l_1_2_43)))
 (let ((?x166 (* _a_2_ l_1_2_28)))
 (let ((?x1545 (* _a_2_ l_1_2_18)))
 (let ((?x1546 (* _a_2_ l_1_2_10)))
 (let ((?x1543 (+ (* (* 10.0 _a_0_) l_1_2_12) (* (* 10.0 _a_0_) l_1_2_41))))
 (let ((?x1253 (+ (- (- (- (- (- ?x1543 ?x1546) ?x1545) ?x166) ?x787) ?x783) (* (* 10.0 _a_3_) l_1_2_33))))
 (let ((?x1236 (- (- (+ ?x1253 (* (* 10.0 _a_3_) l_1_2_36)) (* l_1_2_1 ?x70)) (* l_1_2_15 (- _a_0_ (* 5.0 _a_2_))))))
 (let ((?x2977 (+ (- (- ?x1236 ?x2542) (* l_1_2_3 (- _a_0_ (* 5.0 _a_2_)))) ?x2976)))
 (let ((?x1643 (- (- (+ ?x2977 ?x2978) (* (* 2.0 l_1_2_46) l_1_2_48)) (* (* 2.0 l_1_2_47) l_1_2_49))))
 (= (- ?x1643 ?x1644) 0.0)))))))))))))))))
(assert
 (let ((?x2727 (* 20.0 l_1_2_31)))
 (let ((?x2856 (- (+ (* (* (* (- 2.0) _a_0_) _a_4_) l_1_2_1) ?x2727) (* l_1_2_33 (- _a_0_ (* 10.0 _a_4_))))))
 (= (- ?x2856 (* l_1_2_36 (- _a_0_ (* 10.0 _a_4_)))) 0.0))))
(assert
 (let ((?x1754 (* 10.0 l_1_2_5)))
 (let ((?x2335 (* 10.0 l_1_2_16)))
 (let ((?x314 (+ (* (* 2.0 _a_0_) _a_5_) (* (* 2.0 _a_2_) _a_3_))))
 (let ((?x1262 (+ (- (* (- _a_2_) l_1_2_15) (* _a_2_ l_1_2_3)) (* (* 10.0 _a_5_) l_1_2_33))))
 (let ((?x2454 (- (- (+ ?x1262 (* (* 10.0 _a_5_) l_1_2_36)) (* l_1_2_1 ?x314)) (* l_1_2_12 (- _a_0_ (* 10.0 _a_2_))))))
 (let ((?x2786 (+ (- (+ ?x2454 ?x2335) (* l_1_2_41 (- _a_0_ (* 10.0 _a_2_)))) ?x1754)))
 (= ?x2786 0.0))))))))
(assert
 (let ((?x303 (* _a_5_ l_1_2_36)))
 (let ((?x2026 (* _a_5_ l_1_2_33)))
 (let ((?x769 (- (- (- (* (- _a_4_) l_1_2_12) (* _a_4_ l_1_2_41)) ?x2026) ?x303)))
 (let ((?x961 (- ?x769 (* l_1_2_1 (+ (* _a_2_ _a_2_) (* (* 2.0 _a_4_) _a_5_))))))
 (= (- (- ?x961 l_1_2_16) l_1_2_5) 0.0))))))
(assert
 (let ((?x968 (* _a_2_ l_1_2_36)))
 (let ((?x597 (* _a_2_ l_1_2_33)))
 (= (- (- (* (* (* (- 2.0) _a_2_) _a_4_) l_1_2_1) ?x597) ?x968) 0.0))))
(assert
 (let ((?x1925 (* _a_2_ l_1_2_41)))
 (let ((?x2766 (* _a_2_ l_1_2_12)))
 (= (- (- (* (* (* (- 2.0) _a_2_) _a_5_) l_1_2_1) ?x2766) ?x1925) 0.0))))
(assert
 (let ((?x1654 (* 20.0 l_1_2_35)))
 (let ((?x1332 (* _a_5_ l_1_2_3)))
 (let ((?x2859 (* _a_5_ l_1_2_15)))
 (let ((?x1901 (- (- (- (* (* (* (- 2.0) _a_3_) _a_5_) l_1_2_1) ?x2859) ?x1332) (* l_1_2_12 (- _a_3_ (* 10.0 _a_5_))))))
 (let ((?x1660 (- (+ (- (- ?x1901 l_1_2_24) l_1_2_30) ?x1654) (* l_1_2_41 (- _a_3_ (* 10.0 _a_5_))))))
 (= ?x1660 0.0)))))))
(assert
 (let ((?x1767 (- (- (* (- _a_4_) l_1_2_33) (* _a_4_ l_1_2_36)) (* (* l_1_2_1 _a_4_) _a_4_))))
 (= (- ?x1767 l_1_2_31) 0.0)))
(assert
 (let ((?x1758 (- (- (* (- _a_5_) l_1_2_12) (* _a_5_ l_1_2_41)) (* (* l_1_2_1 _a_5_) _a_5_))))
 (= (- ?x1758 l_1_2_35) 0.0)))
(assert
 (>= l_1_2_1 0.0))
(assert
 (>= l_1_2_2 0.0))
(assert
 (>= l_1_2_3 0.0))
(assert
 (>= l_1_2_4 0.0))
(assert
 (>= l_1_2_5 0.0))
(assert
 (>= l_1_2_6 0.0))
(assert
 (>= l_1_2_7 0.0))
(assert
 (>= l_1_2_8 0.0))
(assert
 (>= l_1_2_9 0.0))
(assert
 (>= l_1_2_10 0.0))
(assert
 (>= l_1_2_11 0.0))
(assert
 (>= l_1_2_12 0.0))
(assert
 (>= l_1_2_13 0.0))
(assert
 (>= l_1_2_14 0.0))
(assert
 (>= l_1_2_15 0.0))
(assert
 (>= l_1_2_16 0.0))
(assert
 (>= l_1_2_17 0.0))
(assert
 (>= l_1_2_18 0.0))
(assert
 (>= l_1_2_19 0.0))
(assert
 (>= l_1_2_20 0.0))
(assert
 (>= l_1_2_21 0.0))
(assert
 (>= l_1_2_22 0.0))
(assert
 (>= l_1_2_23 0.0))
(assert
 (>= l_1_2_24 0.0))
(assert
 (>= l_1_2_25 0.0))
(assert
 (>= l_1_2_26 0.0))
(assert
 (>= l_1_2_27 0.0))
(assert
 (>= l_1_2_28 0.0))
(assert
 (>= l_1_2_29 0.0))
(assert
 (>= l_1_2_30 0.0))
(assert
 (>= l_1_2_31 0.0))
(assert
 (>= l_1_2_32 0.0))
(assert
 (>= l_1_2_33 0.0))
(assert
 (>= l_1_2_34 0.0))
(assert
 (>= l_1_2_35 0.0))
(assert
 (>= l_1_2_36 0.0))
(assert
 (>= l_1_2_37 0.0))
(assert
 (>= l_1_2_38 0.0))
(assert
 (>= l_1_2_39 0.0))
(assert
 (>= l_1_2_40 0.0))
(assert
 (>= l_1_2_41 0.0))
(assert
 (>= l_1_2_42 0.0))
(assert
 (>= l_1_2_43 0.0))
(assert
 (>= l_1_2_44 0.0))
(assert
 (>= l_1_2_45 0.0))
(assert
 (>= l_1_2_47 0.0))
(assert
 (>= l_1_2_50 0.0))
(assert
 (let ((?x1927 (* 50.0 l_1_3_27)))
 (let ((?x1987 (* 10.0 l_1_3_26)))
 (let ((?x2033 (* 50.0 l_1_3_25)))
 (let ((?x2085 (* 10.0 l_1_3_21)))
 (let ((?x2083 (* 10.0 l_1_3_16)))
 (let ((?x2081 (* 11.0 _a_4_)))
 (let ((?x2392 (* _a_0_ l_1_3_14)))
 (let ((?x2558 (* _a_0_ l_1_3_13)))
 (let ((?x2787 (* _a_0_ l_1_3_11)))
 (let ((?x2598 (- (- (* (* (* (- 2.0) _a_0_) _a_1_) l_1_3_5) ?x2787) (* (* 5.0 _a_0_) l_1_3_12))))
 (let ((?x2250 (+ (- (- (- ?x2598 ?x2558) ?x2392) (* (* 5.0 _a_0_) l_1_3_3)) _a_0_)))
 (let ((?x2124 (- (- ?x2250 (* (* 10.0 _a_1_) l_1_3_20)) (* (* 10.0 _a_1_) l_1_3_4))))
 (let ((?x1926 (- (- (- (- (+ (+ ?x2124 (* 1.0 _a_2_)) ?x2081) ?x2083) ?x2085) ?x2033) ?x1987)))
 (= (- (- ?x1926 ?x1927) (* (* 2.0 l_1_3_33) l_1_3_34)) 0.0)))))))))))))))
(assert
 (let ((?x248 (* 10.0 l_1_3_9)))
 (let ((?x395 (* 10.0 l_1_3_29)))
 (let ((?x425 (* 10.0 l_1_3_28)))
 (let ((?x421 (* 50.0 l_1_3_19)))
 (let ((?x474 (* 10.0 l_1_3_15)))
 (let ((?x601 (* 50.0 l_1_3_10)))
 (let ((?x599 (* 2.0 _a_5_)))
 (let ((?x641 (* (/ 121.0 2.0) _a_4_)))
 (let ((?x703 (* _a_3_ l_1_3_14)))
 (let ((?x700 (* _a_3_ l_1_3_13)))
 (let ((?x805 (* _a_3_ l_1_3_11)))
 (let ((?x803 (* 11.0 _a_2_)))
 (let ((?x800 (- (- (* (/ 11.0 2.0) _a_0_) (* (* (* 2.0 _a_1_) _a_3_) l_1_3_5)) (* (* 10.0 _a_1_) l_1_3_24))))
 (let ((?x701 (- (- (+ (- ?x800 (* (* 10.0 _a_1_) l_1_3_7)) ?x803) ?x805) ?x700)))
 (let ((?x473 (- (- (+ (+ (+ (- ?x701 ?x703) _a_3_) ?x641) ?x599) ?x601) (* l_1_3_12 (+ (- _a_1_) (* 5.0 _a_3_))))))
 (let ((?x394 (- (+ (+ (- (+ (+ ?x473 ?x474) l_1_3_18) ?x421) l_1_3_2) l_1_3_23) ?x425)))
 (let ((?x273 (- (- (- ?x394 ?x395) (* l_1_3_3 (+ (- _a_1_) (* 5.0 _a_3_)))) (* (* 2.0 l_1_3_33) l_1_3_36))))
 (= (- ?x273 ?x248) 0.0)))))))))))))))))))
(assert
 (let ((?x3113 (* l_1_3_33 l_1_3_33)))
 (let ((?x3110 (* 5.0 l_1_3_23)))
 (let ((?x3108 (* 5.0 l_1_3_2)))
 (let ((?x3106 (* 5.0 l_1_3_18)))
 (let ((?x3103 (* 25.0 l_1_3_15)))
 (let ((?x3098 (* (/ 121.0 4.0) _a_4_)))
 (let ((?x3093 (* (/ 11.0 2.0) _a_2_)))
 (let ((?x3088 (* _a_1_ l_1_3_14)))
 (let ((?x3086 (* _a_1_ l_1_3_13)))
 (let ((?x3085 (- (- (* (/ 11.0 2.0) _a_0_) (* _a_1_ l_1_3_11)) (* (* 5.0 _a_1_) l_1_3_12))))
 (let ((?x3092 (+ (- (- (- ?x3085 ?x3086) ?x3088) (* (* 5.0 _a_1_) l_1_3_3)) _a_1_)))
 (let ((?x3101 (+ (+ (+ (+ ?x3092 ?x3093) (* 1.0 _a_3_)) ?x3098) (* 1.0 _a_5_))))
 (let ((?x3111 (- (- (- (- (- (- ?x3101 l_1_3_1) ?x3103) l_1_3_17) ?x3106) ?x3108) ?x3110)))
 (let ((?x3118 (- (- (- (- ?x3111 l_1_3_32) ?x3113) (* (* l_1_3_5 _a_1_) _a_1_)) l_1_3_8)))
 (= ?x3118 0.0))))))))))))))))
(assert
 (let ((?x3210 (* 100.0 l_1_3_6)))
 (let ((?x70 (+ (* (* 2.0 _a_0_) _a_3_) (* (* 2.0 _a_1_) _a_2_))))
 (let ((?x3200 (* 100.0 l_1_3_30)))
 (let ((?x3196 (* 10.0 l_1_3_27)))
 (let ((?x3194 (* 10.0 l_1_3_25)))
 (let ((?x2081 (* 11.0 _a_4_)))
 (let ((?x3182 (* _a_2_ l_1_3_14)))
 (let ((?x3180 (* _a_2_ l_1_3_13)))
 (let ((?x3178 (* _a_2_ l_1_3_11)))
 (let ((?x3177 (- (* (* (- 10.0) _a_0_) l_1_3_24) (* (* 10.0 _a_0_) l_1_3_7))))
 (let ((?x3186 (- (+ (- (- (- ?x3177 ?x3178) ?x3180) ?x3182) _a_2_) (* (* 10.0 _a_3_) l_1_3_20))))
 (let ((?x3193 (- (+ (- ?x3186 (* (* 10.0 _a_3_) l_1_3_4)) ?x2081) (* l_1_3_12 (+ (- _a_0_) (* 5.0 _a_2_))))))
 (let ((?x3199 (- (+ (+ ?x3193 ?x3194) ?x3196) (* l_1_3_3 (+ (- _a_0_) (* 5.0 _a_2_))))))
 (let ((?x3207 (- (- (- ?x3199 ?x3200) (* (* 2.0 l_1_3_34) l_1_3_36)) (* (* 2.0 l_1_3_35) l_1_3_37))))
 (= (- (- ?x3207 (* l_1_3_5 ?x70)) ?x3210) 0.0))))))))))))))))
(assert
 (let ((?x3357 (* l_1_3_38 l_1_3_38)))
 (let ((?x3355 (* l_1_3_37 l_1_3_37)))
 (let ((?x3353 (* l_1_3_36 l_1_3_36)))
 (let ((?x3344 (* 100.0 l_1_3_22)))
 (let ((?x3342 (* 15.0 l_1_3_19)))
 (let ((?x3335 (* 15.0 l_1_3_10)))
 (let ((?x3332 (* _a_5_ l_1_3_14)))
 (let ((?x3330 (* _a_5_ l_1_3_13)))
 (let ((?x3331 (- (- (+ (* (/ 11.0 2.0) _a_2_) (* (/ 121.0 4.0) _a_4_)) (* _a_5_ l_1_3_11)) ?x3330)))
 (let ((?x3340 (- (+ (+ (- ?x3331 ?x3332) _a_5_) ?x3335) (* l_1_3_12 (+ (- _a_3_) (* 5.0 _a_5_))))))
 (let ((?x3348 (- (- (+ (- ?x3340 l_1_3_15) ?x3342) ?x3344) (* l_1_3_24 (+ (- _a_1_) (* 10.0 _a_3_))))))
 (let ((?x3352 (- (+ (+ ?x3348 l_1_3_28) l_1_3_29) (* l_1_3_3 (+ (- _a_3_) (* 5.0 _a_5_))))))
 (let ((?x3360 (- (- (- (- ?x3352 ?x3353) ?x3355) ?x3357) (* l_1_3_5 (+ (* (* 2.0 _a_1_) _a_5_) (* _a_3_ _a_3_))))))
 (let ((?x3363 (+ (- ?x3360 (* l_1_3_7 (+ (- _a_1_) (* 10.0 _a_3_)))) l_1_3_9)))
 (= ?x3363 0.0))))))))))))))))
(assert
 (let ((?x3513 (* l_1_3_35 l_1_3_35)))
 (let ((?x3511 (* l_1_3_34 l_1_3_34)))
 (let ((?x3509 (* 100.0 l_1_3_31)))
 (let ((?x3507 (* 5.0 l_1_3_27)))
 (let ((?x3504 (* 5.0 l_1_3_25)))
 (let ((?x3494 (* _a_4_ l_1_3_14)))
 (let ((?x3492 (* _a_4_ l_1_3_13)))
 (let ((?x3493 (- (- (* (- _a_4_) l_1_3_11) (* (* 5.0 _a_4_) l_1_3_12)) ?x3492)))
 (let ((?x3499 (+ (+ (- (- ?x3493 ?x3494) (* (* 5.0 _a_4_) l_1_3_3)) _a_4_) l_1_3_16)))
 (let ((?x3505 (+ (+ (- ?x3499 (* l_1_3_20 (- (* 10.0 _a_0_) _a_1_))) l_1_3_21) ?x3504)))
 (let ((?x3516 (- (- (- (- (+ (+ ?x3505 l_1_3_26) ?x3507) ?x3509) ?x3511) ?x3513) (* l_1_3_4 (- (* 10.0 _a_0_) _a_1_)))))
 (let ((?x3518 (- ?x3516 (* l_1_3_5 (+ (* _a_0_ _a_0_) (* (* 2.0 _a_1_) _a_4_))))))
 (= ?x3518 0.0))))))))))))))
(assert
 (let ((?x3621 (* 10.0 l_1_3_6)))
 (let ((?x314 (+ (* (* 2.0 _a_0_) _a_5_) (* (* 2.0 _a_2_) _a_3_))))
 (let ((?x3617 (* 10.0 l_1_3_30)))
 (let ((?x3274 (* _a_2_ l_1_3_3)))
 (let ((?x3254 (* _a_2_ l_1_3_12)))
 (let ((?x3609 (+ ?x3254 ?x3274)))
 (let ((?x3613 (- (- ?x3609 (* (* 10.0 _a_5_) l_1_3_20)) (* (* 10.0 _a_5_) l_1_3_4))))
 (let ((?x3620 (- (+ (- ?x3613 (* l_1_3_24 (+ (- _a_0_) (* 10.0 _a_2_)))) ?x3617) (* l_1_3_5 ?x314))))
 (= (- (+ ?x3620 ?x3621) (* l_1_3_7 (+ (- _a_0_) (* 10.0 _a_2_)))) 0.0))))))))))
(assert
 (let ((?x3621 (* 10.0 l_1_3_6)))
 (let ((?x617 (+ (* (* 2.0 _a_0_) _a_2_) (* (* 2.0 _a_3_) _a_4_))))
 (let ((?x3617 (* 10.0 l_1_3_30)))
 (let ((?x3534 (* _a_4_ l_1_3_3)))
 (let ((?x3705 (- (+ (- (* _a_4_ l_1_3_12) (* (* 10.0 _a_4_) l_1_3_24)) ?x3534) (* (* 10.0 _a_4_) l_1_3_7))))
 (let ((?x3710 (- (- (- ?x3705 (* l_1_3_20 (- (* 10.0 _a_2_) _a_3_))) l_1_3_25) l_1_3_27)))
 (let ((?x3715 (- (- (+ ?x3710 ?x3617) (* l_1_3_4 (- (* 10.0 _a_2_) _a_3_))) (* l_1_3_5 ?x617))))
 (= (+ ?x3715 ?x3621) 0.0)))))))))
(assert
 (let ((?x3809 (* 20.0 l_1_3_22)))
 (let ((?x3431 (* _a_5_ l_1_3_3)))
 (let ((?x3384 (* _a_5_ l_1_3_12)))
 (let ((?x3807 (- (+ (+ (* (* (* (- 2.0) _a_3_) _a_5_) l_1_3_5) ?x3384) ?x3431) l_1_3_10)))
 (let ((?x3813 (- (+ (- ?x3807 l_1_3_19) ?x3809) (* l_1_3_24 (+ (- _a_3_) (* 10.0 _a_5_))))))
 (= (- ?x3813 (* l_1_3_7 (+ (- _a_3_) (* 10.0 _a_5_)))) 0.0)))))))
(assert
 (let ((?x3869 (* 20.0 l_1_3_31)))
 (let ((?x3868 (- (* (* (* (- 2.0) _a_0_) _a_4_) l_1_3_5) (* l_1_3_20 (+ (- _a_0_) (* 10.0 _a_4_))))))
 (= (- (+ ?x3868 ?x3869) (* l_1_3_4 (+ (- _a_0_) (* 10.0 _a_4_)))) 0.0))))
(assert
 (let ((?x3763 (* _a_2_ l_1_3_4)))
 (let ((?x3737 (* _a_2_ l_1_3_20)))
 (= (+ (+ (* (* (* (- 2.0) _a_2_) _a_4_) l_1_3_5) ?x3737) ?x3763) 0.0))))
(assert
 (let ((?x3916 (- (- (+ (* _a_4_ l_1_3_20) (* _a_4_ l_1_3_4)) l_1_3_31) (* (* l_1_3_5 _a_4_) _a_4_))))
 (= ?x3916 0.0)))
(assert
 (let ((?x3632 (* _a_5_ l_1_3_4)))
 (let ((?x3626 (* _a_5_ l_1_3_20)))
 (let ((?x3932 (- (+ (+ (+ (* _a_4_ l_1_3_24) (* _a_4_ l_1_3_7)) ?x3626) ?x3632) l_1_3_30)))
 (let ((?x3934 (- ?x3932 (* l_1_3_5 (+ (* _a_2_ _a_2_) (* (* 2.0 _a_4_) _a_5_))))))
 (= (- ?x3934 l_1_3_6) 0.0))))))
(assert
 (let ((?x3689 (* _a_2_ l_1_3_7)))
 (let ((?x3647 (* _a_2_ l_1_3_24)))
 (= (+ (+ (* (* (* (- 2.0) _a_2_) _a_5_) l_1_3_5) ?x3647) ?x3689) 0.0))))
(assert
 (let ((?x3975 (- (- (+ (* _a_5_ l_1_3_24) (* _a_5_ l_1_3_7)) l_1_3_22) (* (* l_1_3_5 _a_5_) _a_5_))))
 (= ?x3975 0.0)))
(assert
 (>= l_1_3_1 0.0))
(assert
 (>= l_1_3_2 0.0))
(assert
 (>= l_1_3_3 0.0))
(assert
 (>= l_1_3_4 0.0))
(assert
 (>= l_1_3_5 0.0))
(assert
 (>= l_1_3_6 0.0))
(assert
 (>= l_1_3_7 0.0))
(assert
 (>= l_1_3_8 0.0))
(assert
 (>= l_1_3_9 0.0))
(assert
 (>= l_1_3_10 0.0))
(assert
 (>= l_1_3_11 0.0))
(assert
 (>= l_1_3_12 0.0))
(assert
 (>= l_1_3_13 0.0))
(assert
 (>= l_1_3_14 0.0))
(assert
 (>= l_1_3_15 0.0))
(assert
 (>= l_1_3_16 0.0))
(assert
 (>= l_1_3_17 0.0))
(assert
 (>= l_1_3_18 0.0))
(assert
 (>= l_1_3_19 0.0))
(assert
 (>= l_1_3_20 0.0))
(assert
 (>= l_1_3_21 0.0))
(assert
 (>= l_1_3_22 0.0))
(assert
 (>= l_1_3_23 0.0))
(assert
 (>= l_1_3_24 0.0))
(assert
 (>= l_1_3_25 0.0))
(assert
 (>= l_1_3_26 0.0))
(assert
 (>= l_1_3_27 0.0))
(assert
 (>= l_1_3_28 0.0))
(assert
 (>= l_1_3_29 0.0))
(assert
 (>= l_1_3_30 0.0))
(assert
 (>= l_1_3_31 0.0))
(assert
 (>= l_1_3_32 0.0))
(assert
 (>= l_1_3_33 0.0))
(assert
 (>= l_1_3_35 0.0))
(assert
 (>= l_1_3_38 0.0))
(check-sat)
(get-model)